\* ODT *\
Minimize
OBJ: X0 + X1 + X10 + X11 + X12 + X13 + X14 + X15 + X2 + X3 + X4 + X5 + X6 + X7
 + X8 + X9
Subject To
Cover_0: X1 + X10 + X7 + X8 >= 1
Cover_1: X1 + X10 + X11 + X12 + X5 + X7 + X8 >= 1
Cover_10: X1 + X10 + X7 + X8 >= 1
Cover_11: X1 + X10 + X11 + X12 + X5 + X7 + X8 >= 1
Cover_12: X1 + X10 + X12 + X5 + X7 + X8 >= 1
Cover_13: X1 + X12 + X5 + X8 >= 1
Cover_14: X1 + X10 + X12 + X5 + X7 + X8 >= 1
Cover_15: X1 + X10 + X7 + X8 >= 1
Cover_16: X1 + X10 + X11 + X12 + X5 + X7 + X8 >= 1
Cover_17: X1 + X10 + X12 + X5 + X7 + X8 >= 1
Cover_18: X1 + X12 + X5 + X8 >= 1
Cover_19: X1 + X10 + X12 + X5 + X7 + X8 >= 1
Cover_2: X1 + X10 + X12 + X5 + X7 + X8 >= 1
Cover_20: X10 + X7 >= 1
Cover_21: X10 + X11 + X12 + X5 + X7 >= 1
Cover_22: X10 + X12 + X5 + X7 >= 1
Cover_23: X12 + X5 >= 1
Cover_24: X10 + X12 + X5 + X7 >= 1
Cover_25: X1 + X11 + X8 >= 1
Cover_26: X1 + X12 + X5 + X8 >= 1
Cover_27: X1 + X11 + X12 + X5 + X8 >= 1
Cover_28: X1 + X10 + X11 + X12 + X5 + X7 + X8 >= 1
Cover_29: X1 + X11 + X12 + X5 + X8 >= 1
Cover_3: X1 + X12 + X5 + X8 >= 1
Cover_30: X1 + X10 + X7 + X8 >= 1
Cover_31: X1 + X10 + X7 + X8 >= 1
Cover_32: X1 + X10 + X7 + X8 >= 1
Cover_33: X1 + X10 + X7 + X8 >= 1
Cover_34: X10 + X7 >= 1
Cover_35: X1 + X11 + X8 >= 1
Cover_36: X1 + X10 + X11 + X12 + X5 + X7 + X8 >= 1
Cover_37: X1 + X10 + X11 + X12 + X5 + X7 + X8 >= 1
Cover_38: X1 + X10 + X11 + X12 + X5 + X7 + X8 >= 1
Cover_39: X1 + X10 + X11 + X12 + X5 + X7 + X8 >= 1
Cover_4: X1 + X10 + X12 + X5 + X7 + X8 >= 1
Cover_40: X10 + X11 + X12 + X5 + X7 >= 1
Cover_41: X1 + X12 + X5 + X8 >= 1
Cover_42: X1 + X10 + X12 + X5 + X7 + X8 >= 1
Cover_43: X1 + X10 + X12 + X5 + X7 + X8 >= 1
Cover_44: X1 + X10 + X12 + X5 + X7 + X8 >= 1
Cover_45: X1 + X10 + X12 + X5 + X7 + X8 >= 1
Cover_46: X10 + X12 + X5 + X7 >= 1
Cover_47: X1 + X11 + X12 + X5 + X8 >= 1
Cover_48: X1 + X12 + X5 + X8 >= 1
Cover_49: X1 + X12 + X5 + X8 >= 1
Cover_5: X1 + X10 + X7 + X8 >= 1
Cover_50: X1 + X12 + X5 + X8 >= 1
Cover_51: X1 + X12 + X5 + X8 >= 1
Cover_52: X12 + X5 >= 1
Cover_53: X1 + X10 + X11 + X12 + X5 + X7 + X8 >= 1
Cover_54: X1 + X10 + X12 + X5 + X7 + X8 >= 1
Cover_55: X1 + X10 + X12 + X5 + X7 + X8 >= 1
Cover_56: X1 + X10 + X12 + X5 + X7 + X8 >= 1
Cover_57: X1 + X10 + X12 + X5 + X7 + X8 >= 1
Cover_58: X10 + X12 + X5 + X7 >= 1
Cover_59: X1 + X11 + X12 + X5 + X8 >= 1
Cover_6: X1 + X10 + X11 + X12 + X5 + X7 + X8 >= 1
Cover_7: X1 + X10 + X12 + X5 + X7 + X8 >= 1
Cover_8: X1 + X12 + X5 + X8 >= 1
Cover_9: X1 + X10 + X12 + X5 + X7 + X8 >= 1
Binaries
X0
X1
X10
X11
X12
X13
X14
X15
X2
X3
X4
X5
X6
X7
X8
X9
End
